NAME : gr48.6016.tour
COMMENT : Cost = 2015_6016
COMMENT : Found by LKH [Keld Helsgaun] Thu Nov 16 17:24:52 2017
TYPE : TOUR
DIMENSION : 50
TOUR_SECTION
1
44
41
25
3
19
4
30
38
20
42
39
40
37
47
18
29
50
7
28
46
34
23
43
45
2
35
24
10
12
31
15
26
11
16
13
49
6
22
8
33
5
32
27
17
21
9
14
36
48
-1
EOF
